nNurses = 80;
nHours = 40;
minHours = 9;
maxHours = 9;
maxConsec = 8;
maxPresence = 9;
demand = [8, 12, 13, 12, 9, 13, 13, 16, 14, 13, 8, 6, 9, 6, 10, 9, 12, 13, 11, 11, 7, 9, 14, 18, 18, 18, 15, 13, 16, 17, 15, 17, 14, 13, 9, 8, 6, 10, 14, 16];
